c 
p cnf 10 40
-4 1 8 0
-9 5 3 0
-9 -3 5 0
6 8 -3 0
-8 -10 -9 0
2 -9 7 0
3 7 6 0
-9 -5 -6 0
-5 2 -9 0
-2 -5 1 0
6 -9 -3 0
-3 4 -10 0
1 6 9 0
1 -9 -8 0
4 -6 -5 0
7 -8 -9 0
1 7 -9 0
5 3 -10 0
7 6 -10 0
-9 -4 -5 0
-5 -10 7 0
-6 -2 10 0
7 4 -10 0
1 -5 -4 0
5 -7 10 0
-2 7 -1 0
-6 3 2 0
5 7 -2 0
4 -7 5 0
9 -7 -6 0
3 -6 4 0
3 10 4 0
5 6 -3 0
5 -8 -10 0
8 -7 1 0
-3 -4 8 0
4 -8 3 0
4 -7 -8 0
-7 10 -3 0
3 10 7 0
